;; translated from ./lustre/stalmark.vmt
;; original benchmark available at: https://es-static.fbk.eu/people/griggio/ic3ia/index.html
;; author: Alberto Griggio <griggio@fbk.eu>
(set-logic HORN)
(declare-fun state (Bool Bool Bool Bool Bool Bool Bool Bool) Bool)
(assert (forall ((|c__AT0| Bool) (|flby__AT0| Bool) (|flby2__AT0| Bool) (|flby3__AT0| Bool) (|flby__AT1| Bool) (|flby2__AT1| Bool) (|flby3__AT1| Bool) (|_OK___AT1| Bool) (|a__AT1| Bool) (|b__AT1| Bool) (|c__AT1| Bool) (|_OK___AT0| Bool) (|a__AT0| Bool) (|param_x__AT0| Bool) (|param_x__AT1| Bool) (|b__AT0| Bool)) (=> (let ((.def_33 (and b__AT0 a__AT0)))
(let ((.def_34 (and c__AT0 .def_33)))
(let ((.def_36 (not .def_34)))
(let ((.def_23 (not b__AT0)))
(let ((.def_30 (and a__AT0 .def_23)))
(let ((.def_27 (not c__AT0)))
(let ((.def_31 (and .def_27 .def_30)))
(let ((.def_22 (not a__AT0)))
(let ((.def_26 (and b__AT0 .def_22)))
(let ((.def_28 (and .def_26 .def_27)))
(let ((.def_24 (and .def_22 .def_23)))
(let ((.def_25 (and c__AT0 .def_24)))
(let ((.def_29 (or .def_25 .def_28)))
(let ((.def_32 (or .def_29 .def_31)))
(let ((.def_35 (or .def_32 .def_34)))
(let ((.def_37 (and .def_35 .def_36)))
(let ((.def_39 (= .def_37 _OK___AT0)))
(let ((.def_21 (= flby__AT0 a__AT0)))
(let ((.def_40 (and .def_21 .def_39)))
(let ((.def_19 (= flby2__AT0 b__AT0)))
(let ((.def_41 (and .def_19 .def_40)))
(let ((.def_17 (= flby3__AT0 c__AT0)))
(let ((.def_42 (and .def_17 .def_41)))
(let ((.def_12 (not flby2__AT0)))
(let ((.def_14 (and .def_12 flby__AT0)))
(let ((.def_10 (not flby3__AT0)))
(let ((.def_15 (and .def_10 .def_14)))
(let ((.def_43 (and .def_15 .def_42)))
.def_43)))))))))))))))))))))))))))) (state |flby3__AT0| |flby2__AT0| |flby__AT0| |c__AT0| |b__AT0| |a__AT0| |_OK___AT0| |param_x__AT0|))))
(assert (forall ((|c__AT0| Bool) (|flby__AT0| Bool) (|flby2__AT0| Bool) (|flby3__AT0| Bool) (|flby__AT1| Bool) (|flby2__AT1| Bool) (|flby3__AT1| Bool) (|_OK___AT1| Bool) (|a__AT1| Bool) (|b__AT1| Bool) (|c__AT1| Bool) (|_OK___AT0| Bool) (|a__AT0| Bool) (|param_x__AT0| Bool) (|param_x__AT1| Bool) (|b__AT0| Bool)) (=> (and (state |flby3__AT0| |flby2__AT0| |flby__AT0| |c__AT0| |b__AT0| |a__AT0| |_OK___AT0| |param_x__AT0|) (let ((.def_77 (= c__AT0 flby__AT1)))
(let ((.def_76 (= a__AT0 flby2__AT1)))
(let ((.def_78 (and .def_76 .def_77)))
(let ((.def_75 (= b__AT0 flby3__AT1)))
(let ((.def_79 (and .def_75 .def_78)))
(let ((.def_64 (and b__AT1 a__AT1)))
(let ((.def_65 (and c__AT1 .def_64)))
(let ((.def_67 (not .def_65)))
(let ((.def_54 (not b__AT1)))
(let ((.def_61 (and a__AT1 .def_54)))
(let ((.def_58 (not c__AT1)))
(let ((.def_62 (and .def_58 .def_61)))
(let ((.def_53 (not a__AT1)))
(let ((.def_57 (and b__AT1 .def_53)))
(let ((.def_59 (and .def_57 .def_58)))
(let ((.def_55 (and .def_53 .def_54)))
(let ((.def_56 (and c__AT1 .def_55)))
(let ((.def_60 (or .def_56 .def_59)))
(let ((.def_63 (or .def_60 .def_62)))
(let ((.def_66 (or .def_63 .def_65)))
(let ((.def_68 (and .def_66 .def_67)))
(let ((.def_70 (= .def_68 _OK___AT1)))
(let ((.def_52 (= a__AT1 flby__AT1)))
(let ((.def_71 (and .def_52 .def_70)))
(let ((.def_49 (= b__AT1 flby2__AT1)))
(let ((.def_72 (and .def_49 .def_71)))
(let ((.def_46 (= c__AT1 flby3__AT1)))
(let ((.def_73 (and .def_46 .def_72)))
(let ((.def_33 (and b__AT0 a__AT0)))
(let ((.def_34 (and c__AT0 .def_33)))
(let ((.def_36 (not .def_34)))
(let ((.def_23 (not b__AT0)))
(let ((.def_30 (and a__AT0 .def_23)))
(let ((.def_27 (not c__AT0)))
(let ((.def_31 (and .def_27 .def_30)))
(let ((.def_22 (not a__AT0)))
(let ((.def_26 (and b__AT0 .def_22)))
(let ((.def_28 (and .def_26 .def_27)))
(let ((.def_24 (and .def_22 .def_23)))
(let ((.def_25 (and c__AT0 .def_24)))
(let ((.def_29 (or .def_25 .def_28)))
(let ((.def_32 (or .def_29 .def_31)))
(let ((.def_35 (or .def_32 .def_34)))
(let ((.def_37 (and .def_35 .def_36)))
(let ((.def_39 (= .def_37 _OK___AT0)))
(let ((.def_21 (= flby__AT0 a__AT0)))
(let ((.def_40 (and .def_21 .def_39)))
(let ((.def_19 (= flby2__AT0 b__AT0)))
(let ((.def_41 (and .def_19 .def_40)))
(let ((.def_17 (= flby3__AT0 c__AT0)))
(let ((.def_42 (and .def_17 .def_41)))
(let ((.def_74 (and .def_42 .def_73)))
(let ((.def_80 (and .def_74 .def_79)))
.def_80)))))))))))))))))))))))))))))))))))))))))))))))))))))) (state |flby3__AT1| |flby2__AT1| |flby__AT1| |c__AT1| |b__AT1| |a__AT1| |_OK___AT1| |param_x__AT1|))))
(assert (forall ((|c__AT0| Bool) (|flby__AT0| Bool) (|flby2__AT0| Bool) (|flby3__AT0| Bool) (|flby__AT1| Bool) (|flby2__AT1| Bool) (|flby3__AT1| Bool) (|_OK___AT1| Bool) (|a__AT1| Bool) (|b__AT1| Bool) (|c__AT1| Bool) (|_OK___AT0| Bool) (|a__AT0| Bool) (|param_x__AT0| Bool) (|param_x__AT1| Bool) (|b__AT0| Bool)) (=> (state |flby3__AT0| |flby2__AT0| |flby__AT0| |c__AT0| |b__AT0| |a__AT0| |_OK___AT0| |param_x__AT0|) _OK___AT0)))
(check-sat)
